44 406
1 7 8 10 12 17 18 19 20 21 22 25 29 31 32 34 35 37 39 40 41 42
0 3 6 7 17 18 19 21 25 26 29 31 38 39 41 42 43
6 11 14 15 17 18 20 22 24 25 26 27 29 33 36 37 40 41 42
1 4 5 7 8 11 13 16 17 20 21 25 26 27 29 34 40
3 5 7 9 11 13 17 20 26 27 28 30 36 41 43
3 4 6 7 9 12 13 21 25 26 27 28 30 38 39 40 41 42
1 2 5 9 11 12 13 14 16 18 19 22 25 27 33 34 35 36 38 39 43
0 1 3 4 5 11 13 15 17 18 21 23 25 26 27 29 30 31 32 37 40 41
0 3 12 14 15 16 18 19 20 23 26 30 34 37 39 40 42
4 5 6 12 13 15 20 23 24 25 29 30 31 35
0 12 14 17 18 21 22 23 24 27 28 30 31 32 36 37 38 39 42
2 3 4 6 7 15 17 18 22 29 31 34 36 39 41
0 5 6 8 9 10 16 18 20 22 23 25 27 28 30 32 38 41
3 4 5 6 7 9 15 19 21 23 26 30 31 33 38 41
2 6 8 10 16 20 21 22 25 28 30 32 34 40 41 43
2 7 8 9 11 13 17 19 20 21 24 25 31 32 33 35 38 39 43
3 6 8 12 14 20 25 26 28 29 33 34 35 36 38 39 40 42
0 1 2 3 4 7 10 11 15 20 22 25 31 32 35 40 42 43
0 1 2 6 7 8 10 11 12 23 25 26 27 28 31 32 34 35 39 40 42
0 1 6 8 13 15 24 27 30 33 34 35 36 37 38
0 2 3 4 8 9 12 14 15 16 17 24 25 29 31 38 42 43
0 1 3 5 7 10 13 14 15 23 24 25 28 30 31 35 40 43
0 2 6 10 11 12 14 17 28 29 32 33 36 37 38 39 41
7 8 9 10 12 13 18 21 24 29 34 35 37 38 43
2 9 10 15 19 20 21 23 25 26 28 30 32 35 37 39 40
0 1 2 3 5 6 7 9 12 14 15 16 17 18 20 21 24 27 30 32 34 36 37 40 42
1 2 3 4 5 7 8 13 16 18 24 27 28 30 31 32 35 36 42
2 3 4 5 6 7 10 12 18 19 25 26 30 33 34 35 38 39 41
4 5 10 12 14 16 18 21 22 24 26 30 32 37 38 39 40 42
0 1 2 3 7 9 11 16 20 22 23 30 34 38 39 41 42 43
4 5 7 8 9 10 12 13 14 19 21 24 25 26 27 28 29 31 32 36 37 38 39
0 1 7 9 10 11 13 15 17 18 20 21 26 30 33 34 36 39 40
0 7 10 12 14 15 17 18 22 24 25 26 28 30 35 36 37 39 40 43
2 6 13 15 16 19 22 27 31 35 37 39 40 41 42 43
0 3 6 8 11 14 16 18 19 23 25 27 29 31 35 38 40 42
0 6 9 15 16 17 18 19 21 23 24 26 27 32 33 34 38 39 40 41 42
2 4 6 10 11 16 19 22 25 26 30 31 32 39 42
0 2 7 8 10 19 22 23 24 25 28 30 32 33 39 43
1 5 6 10 12 13 15 16 19 20 22 23 27 28 29 30 34 35 40 41 42
0 1 5 6 8 10 11 15 16 18 22 24 27 28 29 30 31 32 33 35 36 37 41 42 43
0 2 3 5 7 8 14 16 17 18 21 24 25 28 31 32 33 34 35 38 42 43
0 1 2 4 5 7 11 12 13 14 22 27 29 33 35 38 39 42
0 1 2 5 8 10 16 17 18 20 25 26 28 29 33 34 35 36 38 39 40 41
1 4 6 14 15 17 20 21 23 29 32 33 37 39 40
